SYSTEM=IFC

PREC=High
ISTART=0
ICHARG=2
ISPIN=1

NELM=60;NELMIN=4;NELMDL=-3
EDIFF=1E-7
ENCUT=500

IALGO=38
ADDGRID=True
LREAL= .F.

NSW=0
IBRION=1
EDIFFG=1e-5

ISMEAR=0;SIGMA=0.01

NCORE = 4
SYMPREC=1e-6
