 # NVT or NPT
#本输入文件的主要的目的是进行aimd模拟，后将其输出整理为gpumd的训练集，该脚本会输出位力（应力）信息
@SET ENSEMBLE_EVN NPT
@SET OT_ACTIVE    TRUE
@SET PROJECT_NAME BN_AIMD
@SET XYZFILE      BN.xyz
@SET CIFFILE      BN_mp_984.cif
@SET NAME         ${PROJECT_NAME}
@SET RESTART      FALSE
@SET everyTime    10
@SET V_pressure   1.01325
@SET V_temperature Replace

&GLOBAL
    PROJECT_NAME  ${PROJECT_NAME}
    RUN_TYPE    MOLECULAR_DYNAMICS
    PRINT_LEVEL LOW
&END GLOBAL

&MOTION
    @IF (${ENSEMBLE_EVN} == NPT)
    &MD
        ENSEMBLE NPT_I
        STEPS 10000
        TEMPERATURE ${V_temperature}
        TIMESTEP 0.5
        &BAROSTAT
            PRESSURE ${V_pressure}
            TIMECON 100
        &END BAROSTAT
        &PRINT
            FORCE_LAST .TRUE.
            &ENERGY
                &EACH
                    MD ${everyTime}
                &END EACH
            &END ENERGY
            &PROGRAM_RUN_INFO
                &EACH
                   MD 100
                &END EACH
            &END PROGRAM_RUN_INFO
        &END PRINT
        &THERMOSTAT
            TYPE NOSE
   	        &NOSE
                TIMECON 100.
      	    &END NOSE
        &END THERMOSTAT
    &END MD
   &GEO_OPT
     MAX_ITER 400
     OPTIMIZER LBFGS
     MAX_FORCE 6.0E-4
    &LBFGS
      MAX_H_RANK 30
    &END LBFGS
   &END GEO_OPT
   @ENDIF
   @IF (${ENSEMBLE_EVN} == NVT)
   &MD
        ENSEMBLE NVT
        STEPS 10000
        TEMPERATURE ${V_temperature}
        TIMESTEP 0.5
        &PRINT
            FORCE_LAST .TRUE.
            &ENERGY
                &EACH
                    MD ${everyTime}
                &END EACH
            &END ENERGY
            &PROGRAM_RUN_INFO
                &EACH
                    MD 100
                &END EACH
            &END PROGRAM_RUN_INFO
        &END PRINT
        &THERMOSTAT
            TYPE NOSE
        &END THERMOSTAT
    &END MD
  @ENDIF
    &PRINT
        &CELL
            &EACH
                MD ${everyTime}
            &END EACH
        &END CELL
        &FORCES
            &EACH
                MD ${everyTime}
            &END EACH
        &END FORCES
        &RESTART
            &EACH
                MD 20
            &END EACH
        &END RESTART
        &RESTART_HISTORY
            &EACH
                MD 5000
            &END EACH
        &END RESTART_HISTORY
        &VELOCITIES
            &EACH
                MD ${everyTime}
            &END EACH
        &END VELOCITIES
        &TRAJECTORY  SILENT
            &EACH
                MD ${everyTime}
            &END EACH
        &END TRAJECTORY
        &STRESS
            &EACH
                MD ${everyTime}
            &END EACH
        &END STRESS
    &END PRINT
&END MOTION

&FORCE_EVAL
  METHOD Quickstep 
  @IF (${ENSEMBLE_EVN} == NPT)
  STRESS_TENSOR ANALYTICAL
  @ENDIF
  &SUBSYS
     &KIND N
      ELEMENT   N
      BASIS_SET DZVP-GTH-PADE     #在BASIS_SET文件中可以找到硅元素的DZVP-GTH-PADE基组。D代表Double。double-ζ with polarisation basis optimised for Geodecker-Teter-Hutter PADE LDA pseudopotential
      POTENTIAL GTH-PADE-q5       #在GTH_POTENTIAL文件中可以找到硅元素的GTH-PADE-q4赝势。Geodecker-Teter-Hutter PADE LDA pseudopotential with 4 valence electrons
    &END KIND
    &KIND B
        ELEMENT B
        BASIS_SET DZVP-GTH-PADE
        POTENTIAL GTH-PADE-q3
    &END KIND
     &CELL
       CELL_FILE_FORMAT CIF
       CELL_FILE_NAME ${CIFFILE}
       MULTIPLE_UNIT_CELL  4 4 2
     &END CELL
     &TOPOLOGY
       COORD_FILE_NAME ${XYZFILE}
       COORD_FILE_FORMAT  XYZ
       &CENTER_COORDINATES ON
       &END CENTER_COORDINATES
       &GENERATE
        REORDER .TRUE.
       &END GENERATE
     &END TOPOLOGY
  &END SUBSYS
  &DFT                          
    BASIS_SET_FILE_NAME  BASIS_SET
    POTENTIAL_FILE_NAME  GTH_POTENTIALS
    &QS                           
      EPS_DEFAULT 1.0E-10
    &END QS
    &MGRID                        
      NGRIDS 4                    
      CUTOFF 500                 
      REL_CUTOFF 60
    &END MGRID
    &XC                       
      &XC_FUNCTIONAL PADE
      &END XC_FUNCTIONAL
      &vdW_POTENTIAL
         DISPERSION_FUNCTIONAL PAIR_POTENTIAL
         &PAIR_POTENTIAL
           TYPE DFTD3
           PARAMETER_FILE_NAME  dftd3.dat
           REFERENCE_FUNCTIONAL BLYP
         &END PAIR_POTENTIAL
      &END vdW_POTENTIAL
    &END XC
    &SCF
        SCF_GUESS ATOMIC           
        EPS_SCF 1.0E-4             
        MAX_SCF 30 
        &OUTER_SCF ON
          EPS_SCF 1.0E-6
          MAX_SCF 5
        &END
        @IF (${OT_ACTIVE} == FALSE)
        &DIAGONALIZATION  ON        
            ALGORITHM STANDARD        
        &END DIAGONALIZATION
        &MIXING  T                  
         METHOD BROYDEN_MIXING     
         ALPHA 0.4                 
         NBROYDEN 8               
        &END MIXING
        @ENDIF
        @IF (${OT_ACTIVE} == TRUE)
        &OT ON
          MINIMIZER DIIS
          PRECONDITIONER FULL_ALL
          ALGORITHM IRAC
        &END OT
        @ENDIF
        &PRINT
            &RESTART OFF
            &END
        &END PRINT
    &END SCF
  &END DFT
  &PRINT
    &FORCES ON                    
    &END FORCES
  &END PRINT
&END FORCE_EVAL
